p tw 60 120
0 1
0 2
0 43
0 44
1 2
1 45
1 58
2 42
2 58
3 4
3 5
3 19
3 35
4 5
4 49
4 55
5 43
5 46
6 7
6 8
6 28
6 31
7 8
7 41
7 42
8 38
8 41
9 10
9 11
9 37
9 54
10 11
10 21
10 22
11 30
11 37
12 13
12 14
12 54
12 59
13 14
13 52
13 59
14 21
14 26
15 16
15 17
15 25
15 40
16 17
16 39
16 50
17 38
17 39
18 19
18 20
18 23
18 40
19 20
19 35
20 34
20 35
21 22
21 26
22 26
22 27
23 24
23 25
23 40
24 25
24 32
24 33
25 40
26 27
27 32
27 36
28 29
28 30
28 31
29 30
29 31
29 45
30 37
31 45
32 33
32 36
33 36
33 50
34 35
34 48
34 49
36 50
37 54
38 39
38 41
39 50
41 42
42 58
43 44
43 46
44 46
44 47
45 58
46 47
47 51
47 57
48 49
48 55
48 56
49 55
51 52
51 53
51 57
52 53
52 59
53 56
53 57
54 59
55 56
56 57
